c This cnf file is generated with the following input: k = 5, n = 150, r = 0.2
p cnf 150 30
112 137 10 43 -62 0
-70 -71 -119 43 -63 0
17 -22 101 26 -46 0
97 100 84 22 13 0
-129 147 55 10 -125 0
22 -104 -73 -140 60 0
-65 81 33 67 -96 0
21 69 -24 -41 47 0
144 -145 114 139 79 0
-118 56 29 78 -64 0
5 -88 -61 -95 46 0
144 -49 37 -104 -74 0
115 52 -85 -8 111 0
-67 20 43 -76 -141 0
114 130 56 -90 14 0
-36 116 20 -39 -27 0
38 25 -139 -141 -14 0
-65 67 133 138 93 0
32 65 -36 -61 95 0
-130 -82 104 -94 -64 0
-114 -4 -100 -8 77 0
20 -54 -137 -91 -63 0
-69 -149 73 42 -45 0
-17 139 123 15 31 0
129 -4 -7 -59 61 0
-81 -102 -55 -40 59 0
-147 67 -56 -140 -128 0
-139 -91 90 -62 -112 0
80 52 -45 29 143 0
18 -4 85 -110 79 0
